Route #1: 65 19 60 24 2 45 91
Route #2: 54 71 15 100 43 70 98 32 126 25
Route #3: 16 67 90 104 76 92
Route #4: 68 31 44 85 26 40 94
Route #5: 87 89 114 28 53 51 79
Route #6: 23 47 34 22 35 3 49 59 102 111 122 21
Route #7: 20 7 46 30 112 5 95 88
Route #8: 17 13 97 96 117 93 50 74 115 33
Route #9: 61 78 36 58 14 57 63
Route #10: 18 42 41 56 62 86 37
Route #11: 83 125 8 55 10 64
Route #12: 66 106 12 77 80 11 105 72 127
Route #13: 81 69 99 82 108 129 124
Route #14: 84 110 52 121 9 38
Route #15: 27 109 101 73 113 103 75
Route #16: 120 6 107 123 116 118
Route #17: 39 119 29 128 48
Route #18: 4
Cost 47114
